1 19
2 7
3 20
4 6
5 7
6 8
7 8
8 11
9 19
10 14
11 18
12 13
13 20
14 43
15 43
16 32
17 29
18 41
19 31
20 37
21 48
22 36
23 32
24 40
25 33
26 43
27 36
28 43
29 29
30 32
31 35
32 22
33 31
34 30
35 31
36 33
37 28
38 30
39 31
40 31
41 36
42 28
43 41
44 31
45 39
46 33
47 35
48 23
49 18
50 25
51 25
52 27
53 28
54 50
55 29
56 27
57 21
58 35
59 31
60 39
61 36
62 37
63 40
64 37
65 40
66 38
67 27
68 41
69 30
70 31
71 32
72 41
73 36
74 30
75 34
76 43
77 64
78 53
79 45
80 38
81 36
82 34
83 34
84 33
85 31
86 31
87 29
88 40
89 31
90 39
91 35
92 28
93 26
94 36
95 33
96 26
97 30
98 41
99 37
100 33
101 75
102 83
103 56
104 79
105 76
106 60
107 78
108 61
109 60
110 50
